c
c start with comments
c
p cnf 49 35
-52 -8 53 0
40 46 0
-8 -32 -17 -32 -35 0
-39 -20 0
15 -26 41 -27 0
19 -44 0
20 -29 11 4 0
-15 -10 0
34 -22 0
-29 56 18 0
18 15 -30 22 28 0
35 -7 0
12 29 9 0
7 45 -24 -24 0
51 23 0
-41 -43 0
52 12 -29 0
20 15 17 0
-9 21 10 32 0
-37 14 -27 0
47 -35 -19 0
-57 -40 -28 0
16 -47 43 0
-19 -46 53 -30 0
30 -13 54 0
-53 -55 0
-30 -33 16 14 0
-2 8 0
-29 10 53 20 -49 0
21 -45 -33 0
56 41 -36 54 0
-31 -31 55 0
-54 28 -11 0
-3 -54 29 4 29 0
-51 31 0